20 41 85 80 175 2 90 67 39 107 
32 197 141 69 200 124 171 94 65 91 
34 5 10 193 46 128 4 72 60 
101 144 119 166 35 126 37 81 138 
93 55 58 98 157 56 
161 104 18 8 186 127 185 117 49 135 137 
178 27 173 154 24 61 179 
190 82 180 84 191 125 106 167 95 158 17 
48 50 156 112 168 79 29 87 42 123 133 
21 23 152 40 153 14 149 
62 131 44 114 151 16 140 187 142 111 63 
12 160 47 70 116 73 
113 155 78 13 43 
76 68 19 192 196 59 169 105 15 198 
170 134 182 75 163 194 145 195 52 92 89 
184 199 71 9 1 99 53 
159 38 150 22 96 130 74 
177 3 88 54 132 7 181 183 
30 120 26 115 86 51 174 136 189 
57 118 83 143 176 36 33 121 165 188 108 
164 66 147 129 11 6 122 139 
45 100 64 109 
102 146 97 28 
148 103 31 25 172 77 110 162 
